data_161199-ICSD
#?2009 by Fachinformationszentrum Karlsruhe, and the U.S. Secretary of 
#Commerce on behalf of the United States.  All rights reserved.
_database_code_ICSD                161199
_audit_creation_date               2009/02/01
_chemical_name_systematic
;
Strontium Cerium Titanate (0.8/0.13/1)
;
_chemical_formula_structural       '(Sr0.795 Ce0.133) (Ti O3)'
_chemical_formula_sum              'Ce0.133 O3 Sr0.795 Ti1'
_publ_section_title
;
Structure of compounds in the Sr1-3x/2 Cex Ti O3 homologous series
;
loop_
_citation_id
_citation_journal_abbrev
_citation_year
_citation_journal_volume
_citation_page_first
_citation_page_last
_citation_journal_id_ASTM
primary 'Chemistry of Materials (1,1989-' 2008 20 3127 3133 CMATEX
_publ_author_name
;
Ubic, R.;Subodh, G.;Sebastian, M.T.;Gout, D.;Proffen, T.
;
_cell_length_a                     5.5091(2)
_cell_length_b                     5.5091(2)
_cell_length_c                     13.5071(3)
_cell_angle_alpha                  90.
_cell_angle_beta                   90.
_cell_angle_gamma                  120.
_cell_volume                       355.02
_cell_formula_units_Z              6
_symmetry_space_group_name_H-M     'R -3 c H'
_symmetry_Int_Tables_number        167
_refine_ls_R_factor_all            0.0377
loop_
_symmetry_equiv_pos_site_id
_symmetry_equiv_pos_as_xyz
  1	'x-y, -y, -z+1/2'
  2	'-x, -x+y, -z+1/2'
  3	'y, x, -z+1/2'
  4	'x-y, x, -z'
  5	'y, -x+y, -z'
  6	'-x, -y, -z'
  7	'-x+y, y, z+1/2'
  8	'x, x-y, z+1/2'
  9	'-y, -x, z+1/2'
 10	'-x+y, -x, z'
 11	'-y, x-y, z'
 12	'x, y, z'
 13	'x-y+2/3, -y+1/3, -z+5/6'
 14	'x-y+1/3, -y+2/3, -z+1/6'
 15	'-x+2/3, -x+y+1/3, -z+5/6'
 16	'-x+1/3, -x+y+2/3, -z+1/6'
 17	'y+2/3, x+1/3, -z+5/6'
 18	'y+1/3, x+2/3, -z+1/6'
 19	'x-y+2/3, x+1/3, -z+1/3'
 20	'x-y+1/3, x+2/3, -z+2/3'
 21	'y+2/3, -x+y+1/3, -z+1/3'
 22	'y+1/3, -x+y+2/3, -z+2/3'
 23	'-x+2/3, -y+1/3, -z+1/3'
 24	'-x+1/3, -y+2/3, -z+2/3'
 25	'-x+y+2/3, y+1/3, z+5/6'
 26	'-x+y+1/3, y+2/3, z+1/6'
 27	'x+2/3, x-y+1/3, z+5/6'
 28	'x+1/3, x-y+2/3, z+1/6'
 29	'-y+2/3, -x+1/3, z+5/6'
 30	'-y+1/3, -x+2/3, z+1/6'
 31	'-x+y+2/3, -x+1/3, z+1/3'
 32	'-x+y+1/3, -x+2/3, z+2/3'
 33	'-y+2/3, x-y+1/3, z+1/3'
 34	'-y+1/3, x-y+2/3, z+2/3'
 35	'x+2/3, y+1/3, z+1/3'
 36	'x+1/3, y+2/3, z+2/3'
loop_
_atom_type_symbol
_atom_type_oxidation_number
Ce3+	3
O2-	-2
Sr2+	2
Ti4+	4
loop_
_atom_site_label
_atom_site_type_symbol
_atom_site_symmetry_multiplicity
_atom_site_Wyckoff_symbol
_atom_site_fract_x
_atom_site_fract_y
_atom_site_fract_z
_atom_site_occupancy
_atom_site_attached_hydrogens
Sr1 Sr2+ 6 a 0.0000 0.0000 0.2500 0.795 0 
Ce1 Ce3+ 6 a 0.0000 0.0000 0.2500 0.132 0 
Ti1 Ti4+ 6 b 0.0000 0.0000 0.0000 1.000 0 
O1 O2- 18 e -0.1775(2) 0.1559(2) -0.0833 1.000 0 

#End of data_161199-ICSD


